TOUR_SECTION
86
2
80
108
98
184
99
46
116
82
165
32
106
44
148
140
75
30
55
91
1
117
62
22
102
167
60
104
181
150
178
21
84
69
26
36
59
152
56
182
199
169
197
200
115
83
189
136
187
149
43
185
35
172
61
109
190
196
72
76
128
81
79
114
193
168
131
134
52
156
160
137
103
123
192
88
195
163
20
94
191
39
95
194
23
77
141
124
50
176
155
31
166
188
153
144
127
175
87
42
45
177
107
133
64
63
7
145
93
19
89
97
158
122
28
174
12
29
33
139
49
143
27
74
105
161
6
198
164
132
70
67
111
186
53
112
125
24
159
3
11
40
66
37
38
151
13
90
113
17
16
5
129
78
179
96
8
121
73
58
147
146
51
68
154
47
119
130
183
180
15
142
170
48
162
138
101
25
92
41
10
118
18
85
71
57
9
54
34
4
173
126
120
100
110
14
65
157
135
171
-1
EOF